% Auto-generated by scripts/generate_dzn.py
% problem_type   = regex
% instance       = regex_16
% source_json    = instances_json/2_high_blowup/regex_16.json
% blowup         = 10.444444444444445
% representation = NFA

mode = 1;

var_count = 20;
n_constraints = 2;
Q = 16;
S = 3;
q0 = [1, 1];
F = [{11}, {16}];
weights = [1, 4, 6, 9, 9, 4, 5, 10, 8, 2, 7, 6, 4, 2, 7, 2, 5, 5, 3, 5];
d_dfa = array3d(1..2, 1..16, 1..3, [
  % k = 1
    0, 0, 0,
    0, 0, 0,
    0, 0, 0,
    0, 0, 0,
    0, 0, 0,
    0, 0, 0,
    0, 0, 0,
    0, 0, 0,
    0, 0, 0,
    0, 0, 0,
    0, 0, 0,
    0, 0, 0,
    0, 0, 0,
    0, 0, 0,
    0, 0, 0,
    0, 0, 0,

  % k = 2
    0, 0, 0,
    0, 0, 0,
    0, 0, 0,
    0, 0, 0,
    0, 0, 0,
    0, 0, 0,
    0, 0, 0,
    0, 0, 0,
    0, 0, 0,
    0, 0, 0,
    0, 0, 0,
    0, 0, 0,
    0, 0, 0,
    0, 0, 0,
    0, 0, 0,
    0, 0, 0
]);
d_nfa = array3d(1..2, 1..16, 1..3, [
  % k = 1
    {1}, {1, 2}, {1},
    {}, {3}, {},
    {4}, {4}, {4},
    {5}, {5}, {5},
    {6}, {6}, {6},
    {7}, {7}, {7},
    {8}, {8}, {8},
    {9}, {9}, {9},
    {10}, {10}, {10},
    {11}, {11}, {11},
    {}, {}, {},
    {}, {}, {},
    {}, {}, {},
    {}, {}, {},
    {}, {}, {},
    {}, {}, {},

  % k = 2
    {1}, {2}, {1},
    {2}, {3}, {2},
    {3}, {4}, {3},
    {4}, {5}, {4},
    {5}, {6}, {5},
    {6}, {7}, {6},
    {7}, {8}, {7},
    {8}, {9}, {8},
    {9}, {10}, {9},
    {10}, {11}, {10},
    {11}, {12}, {11},
    {12}, {13}, {12},
    {13}, {14}, {13},
    {14}, {15}, {14},
    {15}, {16}, {15},
    {16}, {}, {16}
]);
